30      4       
11      10      17      10      
0       0       0       0       0       19      2       5       7       9       10      11      17      18      19      20      21      22      23      24      25      26      27      28      29      
 
1       0       1       1       1       1       3       
10      0       7       7       4       2       4       13      
4       8       3       7       2       1       6       
3       2       8       12      7       1       6       
4       6       4       13      8       1       8       
5       5       3       10      6       1       8       
1       1       10      5       0       1       12      
1       3       0       6       4       1       16      
3       5       5       11      7       1       15      
10      5       5       8       5       1       14      
7       1       3       0       2       1       30      
9       3       0       3       3       1       30      
8       1       5       5       4       1       30      
9       5       1       5       3       1       30      
1       5       4       10      7       1       30      
8       1       6       6       3       1       30      
8       6       7       10      5       1       30      
7       4       0       3       3       1       30      
8       0       7       4       1       1       30      
3       5       0       8       7       1       30      
1       4       4       7       4       1       30      
7       0       3       4       2       1       30      
9       10      7       17      8       1       30      
6       5       2       2       0       1       30      
7       11      0       9       6       1       30      
1       2       2       6       6       1       30      
2       6       5       5       1       1       30      
5       5       6       4       0       1       30      
0       0       0       0       0       0       
